c ---- [ banner ] ------------------------------------------------------------
c
c Kissat SAT Solver
c 
c Copyright (c) 2021-2024 Armin Biere University of Freiburg
c Copyright (c) 2019-2021 Armin Biere Johannes Kepler University Linz
c 
c Version 4.0.1 43f02cf3e992cb44653b35e5cb26f93281552ae0
c gcc (Ubuntu 13.2.0-23ubuntu4) 13.2.0 -W -Wall -O3 -DNDEBUG
c Thu Sep 12 12:27:46 CEST 2024 Linux abryzen9 6.8.0-41-generic x86_64
c
c ---- [ parsing ] -----------------------------------------------------------
c
c opened and reading DIMACS file:
c
c   /data/artifact/AMulet2.0_artifact/exp4/cnf_resyn3_64/64_64_U_SP_CWT_CK_GenMul_resyn3.cnf
c
c parsed 'p cnf 35712 142132' header
c closing input after reading 2778009 bytes (3 MB)
c finished parsing after 0.03 seconds
c
c ---- [ options ] -----------------------------------------------------------
c
c --stable=0                       (different from default '1')
c
c ---- [ solving ] -----------------------------------------------------------
c
c  seconds switched rate     size/glue tier1  binary           remaining
c         MB reductions conflicts size  tier2     irredundant
c          level restarts redundant glue  trail           variables
c
c *  0.03 10 0 0 0  0 0   0   0 0.0 0 0 0 0 0% 34651 107479 35709 100%
c (  0.05 13 0 0 0  0 0   0   0 0.0 0 0 0 0 0% 34651 107479 35709 100%
c .  0.06 13 0 0 0  0 0   0   0 0.0 0 0 0 0 0% 34647 107479 35709 100%
c c  0.15 21 0 0 0  0 0   0   0 0.0 0 0 0 0 0% 40939 96888 32591 91%
c d  0.15 21 0 0 0  0 0   0   0 0.0 0 0 0 0 0% 34703 96888 32591 91%
c =  0.21 21 0 0 0  0 0   0   0 0.0 0 0 0 0 0% 34593 96888 32022 90%
c d  0.22 21 0 0 0  0 0   0   0 0.0 0 0 0 0 0% 33455 96888 32022 90%
c f  0.32 20 0 0 0  0 0   0   0 0.0 0 0 0 0 0% 34553 93740 33587 94%
c e  0.43 27 0 0 0  0 0   0   0 0.0 0 0 0 0 0% 23097 100844 24618 69%
c )  0.43 27 0 0 0  0 0   0   0 0.0 0 0 0 0 0% 23097 100844 24618 69%
c {  0.45 29 0 0 0  0 0   0   0 0.0 0 0 2 6 0% 23097 100844 24618 69%
c -  0.52 29 124 0 1 154 16 1000 676 1.9 7 4 3 6 15% 23239 100816 24618 69%
c -  0.76 29 170 0 2 405 38 2001 1431 3.3 15 5 3 7 22% 23296 100814 24618 69%
c c  0.95 23 177 0 2 502 39 2504 1864 3.7 18 5 3 8 25% 23800 100413 24218 68%
c d  0.95 23 177 0 2 502 39 2504 1863 3.7 18 5 3 8 25% 23000 100413 24218 68%
c u  0.97 23 177 0 2 502 39 2504 1453 3.7 18 5 3 8 25% 21808 100413 24218 68%
c v  0.98 23 177 0 2 502 39 2504 1294 3.7 18 5 3 8 25% 21808 100413 24218 68%
c w  1.00 23 177 0 2 502 39 2504 1294 3.7 18 5 3 8 25% 21808 100413 24218 68%
c x  1.01 25 177 0 2 502 39 2504 1293 3.7 18 5 3 8 25% 21833 100345 24218 68%
c =  1.08 25 177 0 2 502 39 2504 1293 3.7 18 5 3 8 25% 22969 100345 23650 66%
c
c  seconds   switched   rate       size/glue tier1    binary           remaining
c         MB  reductions conflicts       size  tier2      irredundant
c           level restarts    redundant    glue   trail           variables
c
c d  1.08 25 177 0 2 502 39 2504 1280 3.7 18 5 3 8 25% 21830 100345 23650 66%
c t  1.09 25 177 0 2 502 39 2504 1280 3.7 18 5 3 8 25% 21752 100345 23650 66%
c f  1.12 25 177 0 2 502 39 2504 1280 3.7 18 5 3 8 25% 22357 99014 24265 68%
c u  1.19 27 177 0 2 502 39 2504 1181 3.7 18 5 3 8 25% 22365 99014 24265 68%
c v  1.20 27 177 0 2 502 39 2504 1131 3.7 18 5 3 8 25% 22365 99014 24265 68%
c w  1.22 27 177 0 2 502 39 2504 1128 3.7 18 5 3 8 25% 22365 99014 24265 68%
c x  1.24 27 177 0 2 502 39 2504 1128 3.7 18 5 3 8 25% 22366 98856 24265 68%
c =  1.30 27 177 0 2 502 39 2504 1128 3.7 18 5 3 8 25% 23616 98856 23640 66%
c d  1.30 27 177 0 2 502 39 2504 1110 3.7 18 5 3 8 25% 22246 98856 23639 66%
c t  1.31 27 177 0 2 502 39 2504 1110 3.7 18 5 3 8 25% 22207 98856 23639 66%
c f  1.34 27 177 0 2 502 39 2504 1110 3.7 18 5 3 8 25% 22421 98206 23963 67%
c -  1.48 27 230 0 3 563 36 3415 1708 3.4 17 5 3 8 29% 22460 98205 23963 67%
c -  1.87 27 227 0 4 838 37 5148 2872 3.5 18 5 3 7 29% 22538 98196 23963 67%
c -  2.28 27 248 0 5 1128 38 7148 3879 3.9 21 5 2 7 28% 22631 98189 23963 67%
c d  2.35 27 248 0 5 1162 37 7711 4310 3.8 20 5 2 7 28% 22617 98188 23939 67%
c u  2.38 27 248 0 5 1162 37 7711 3669 3.8 20 5 2 7 28% 22624 98188 23939 67%
c v  2.41 27 248 0 5 1162 37 7711 3035 3.8 20 5 2 7 28% 22624 98188 23939 67%
c w  2.43 27 248 0 5 1162 37 7711 3017 3.8 20 5 2 7 28% 22624 98188 23939 67%
c x  2.46 27 248 0 5 1162 37 7711 3016 3.8 20 5 2 7 28% 22626 97105 23939 67%
c =  2.60 27 248 0 5 1162 37 7711 3016 3.8 20 5 2 7 28% 23522 97105 23491 66%
c
c  seconds   switched    rate       size/glue tier1    binary          remaining
c         MB  reductions  conflicts       size  tier2      irredundant
c           level  restarts    redundant    glue   trail          variables
c
c d  2.61 27 248 0 5 1162 37 7711 2979 3.8 20 5 2 7 28% 22307 97105 23491 66%
c t  2.62 27 248 0 5 1162 37 7711 2979 3.8 20 5 2 7 28% 22285 97105 23491 66%
c f  2.68 27 248 0 5 1162 37 7711 2979 3.8 20 5 2 7 28% 22463 96722 23630 66%
c c  2.73 27 248 0 5 1162 37 7711 2976 3.8 20 5 2 7 28% 22469 96709 23627 66%
c d  2.74 27 248 0 5 1162 37 7711 2976 3.8 20 5 2 7 28% 22463 96709 23627 66%
c u  2.76 27 248 0 5 1162 37 7711 2819 3.8 20 5 2 7 28% 22463 96709 23627 66%
c v  2.78 27 248 0 5 1162 37 7711 2698 3.8 20 5 2 7 28% 22463 96709 23627 66%
c w  2.79 27 248 0 5 1162 37 7711 2693 3.8 20 5 2 7 28% 22463 96709 23627 66%
c x  2.83 27 248 0 5 1162 37 7711 2691 3.8 20 5 2 7 28% 22534 92686 23627 66%
c =  2.95 27 248 0 5 1162 37 7711 2691 3.8 20 5 2 7 28% 22968 92686 23410 66%
c d  2.96 27 248 0 5 1162 37 7711 2685 3.8 20 5 2 7 28% 22383 92686 23410 66%
c t  2.98 27 248 0 5 1162 37 7711 2685 3.8 20 5 2 7 28% 22377 92686 23410 66%
c f  3.03 27 248 0 5 1162 37 7711 2685 3.8 20 5 2 7 28% 22407 92606 23441 66%
c -  3.32 27 245 0 6 1329 35 9384 3723 3.7 20 5 3 7 28% 22464 92606 23441 66%
c o  3.41 27 252 0 6 1376 35 10010 4266 3.6 19 5 3 7 29% 22494 92604 23441 66%
c -  3.96 27 240 0 7 1671 36 11833 5042 3.8 22 6 2 7 30% 22543 92604 23441 66%
c s  4.05 27 247 0 7 1695 35 12519 5619 3.8 22 6 2 7 29% 22603 89048 23441 66%
c e  4.14 27 247 0 7 1695 35 12519 5619 3.8 22 6 2 7 29% 19060 91724 21706 61%
c 2  4.14 27 247 0 7 1695 35 12519 5619 3.8 22 6 2 7 29% 19055 91724 21706 61%
c s  4.15 27 247 0 7 1695 35 12519 5619 3.8 22 6 2 7 29% 19059 91316 21706 61%
c
c  seconds   switched    rate        size/glue tier1    binary          remaining
c         MB  reductions   conflicts       size  tier2      irredundant
c           level  restarts     redundant    glue   trail          variables
c
c e  4.16 27 247 0 7 1695 35 12519 5619 3.8 22 6 2 7 29% 19021 91346 21687 61%
c ^  4.16 27 247 0 7 1695 35 12519 5619 3.8 22 6 2 7 29% 19021 91346 21687 61%
c -  4.48 27 277 0 8 1854 35 14478 5753 3.7 21 6 2 7 29% 19092 91344 21687 61%
c d  4.61 27 278 0 8 1924 33 15793 6858 3.6 20 6 2 7 29% 19120 91339 21665 61%
c u  4.64 27 278 0 8 1924 33 15793 5818 3.6 20 6 2 7 29% 19135 91339 21665 61%
c v  4.67 27 278 0 8 1924 33 15793 5012 3.6 20 6 2 7 29% 19136 91339 21665 61%
c w  4.70 27 278 0 8 1924 33 15793 4976 3.6 20 6 2 7 29% 19137 91339 21665 61%
c x  4.74 27 278 0 8 1924 33 15793 4972 3.6 20 6 2 7 29% 19257 90501 21665 61%
c =  4.88 27 278 0 8 1924 33 15793 4972 3.6 20 6 2 7 29% 19897 90501 21345 60%
c d  4.88 27 278 0 8 1924 33 15793 4946 3.6 20 6 2 7 29% 19168 90501 21345 60%
c t  4.90 27 278 0 8 1924 33 15793 4946 3.6 20 6 2 7 29% 19107 90501 21345 60%
c f  4.96 27 278 0 8 1924 33 15793 4946 3.6 20 6 2 7 29% 19179 90279 21404 60%
c u  5.00 27 278 0 8 1924 33 15793 4710 3.6 20 6 2 7 29% 19184 90279 21404 60%
c v  5.02 27 278 0 8 1924 33 15793 4560 3.6 20 6 2 7 29% 19185 90279 21404 60%
c w  5.05 27 278 0 8 1924 33 15793 4544 3.6 20 6 2 7 29% 19185 90279 21404 60%
c x  5.09 27 278 0 8 1924 33 15793 4543 3.6 20 6 2 7 29% 19256 89200 21404 60%
c =  5.22 27 278 0 8 1924 33 15793 4543 3.6 20 6 2 7 29% 20068 89200 20998 59%
c d  5.23 27 278 0 8 1924 33 15793 4478 3.6 20 6 2 7 29% 19183 89200 20998 59%
c t  5.25 27 278 0 8 1924 33 15793 4478 3.6 20 6 2 7 29% 19113 89200 20998 59%
c f  5.27 27 278 0 8 1924 33 15793 4478 3.6 20 6 2 7 29% 19104 89064 21038 59%
c
c  seconds   switched    rate        size/glue tier1    binary          remaining
c         MB  reductions   conflicts       size  tier2      irredundant
c           level  restarts     redundant    glue   trail          variables
c
c -  5.51 27 276 0 9 2057 33 17307 5049 3.7 21 6 2 7 28% 19179 89064 21038 59%
c o  5.84 28 264 0 9 2253 31 20010 7450 3.6 21 6 2 7 28% 19244 89064 21038 59%
c -  5.89 28 266 0 10 2296 32 20308 6802 3.6 21 6 2 7 28% 19250 89064 21038 59%
c -  6.32 28 257 0 11 2564 31 23470 8386 3.5 20 6 2 7 28% 19334 89063 21038 59%
c s  6.53 28 257 0 11 2682 31 25023 9724 3.5 20 6 2 7 28% 19384 87652 21038 59%
c e  6.64 28 257 0 11 2682 31 25023 9724 3.5 20 6 2 7 28% 16356 92106 19138 54%
c 2  6.64 28 257 0 11 2682 31 25023 9724 3.5 20 6 2 7 28% 16335 92106 19138 54%
c s  6.66 28 257 0 11 2682 31 25023 9724 3.5 20 6 2 7 28% 16422 90701 19138 54%
c e  6.68 28 257 0 11 2682 31 25023 9724 3.5 20 6 2 7 28% 16267 90926 19050 53%
c ^  6.68 28 257 0 11 2682 31 25023 9724 3.5 20 6 2 7 28% 16267 90926 19050 53%
c -  6.93 28 249 0 12 2833 30 26788 8373 3.4 20 6 2 7 29% 16297 90925 19050 53%
c c  6.99 28 249 0 12 2851 30 26921 8497 3.4 20 6 2 7 29% 16317 90867 19040 53%
c d  7.00 28 249 0 12 2851 30 26921 8482 3.4 20 6 2 7 29% 16274 90867 19026 53%
c u  7.03 28 249 0 12 2851 30 26921 7379 3.4 20 6 2 7 29% 16289 90867 19026 53%
c v  7.06 28 249 0 12 2851 30 26921 6490 3.4 20 6 2 7 29% 16289 90867 19026 53%
c w  7.08 28 249 0 12 2851 30 26921 6489 3.4 20 6 2 7 29% 16289 90867 19026 53%
c x  7.13 28 249 0 12 2851 30 26921 6482 3.4 20 6 2 7 29% 16380 89460 19026 53%
c =  7.28 28 249 0 12 2851 30 26921 6482 3.4 20 6 2 7 29% 17626 89458 18403 52%
c d  7.29 28 249 0 12 2851 30 26921 6421 3.4 20 6 2 7 29% 16360 89458 18401 52%
c t  7.30 28 249 0 12 2851 30 26921 6421 3.4 20 6 2 7 29% 16079 89458 18401 52%
c
c  seconds   switched     rate        size/glue tier1    binary          remaining
c         MB   reductions   conflicts       size  tier2      irredundant
c           level   restarts     redundant    glue   trail          variables
c
c f  7.37 28 249 0 12 2851 30 26921 6421 3.4 20 6 2 7 29% 16224 88930 18497 52%
c u  7.40 28 249 0 12 2851 30 26921 6084 3.4 20 6 2 7 29% 16231 88930 18497 52%
c v  7.43 28 249 0 12 2851 30 26921 5890 3.4 20 6 2 7 29% 16231 88930 18497 52%
c w  7.44 28 249 0 12 2851 30 26921 5889 3.4 20 6 2 7 29% 16231 88930 18497 52%
c x  7.50 28 249 0 12 2851 30 26921 5888 3.4 20 6 2 7 29% 16231 87173 18497 52%
c =  7.67 28 249 0 12 2851 30 26921 5888 3.4 20 6 2 7 29% 18017 87172 17604 49%
c d  7.67 28 249 0 12 2851 30 26921 5768 3.4 20 6 2 7 29% 16182 87172 17604 49%
c t  7.69 28 249 0 12 2851 30 26921 5768 3.4 20 6 2 7 29% 16010 87172 17604 49%
c f  7.73 28 249 0 12 2851 30 26921 5768 3.4 20 6 2 7 29% 16074 86743 17682 50%
c -  8.16 28 242 0 13 3148 29 30252 7654 3.2 19 6 2 7 29% 16141 86738 17682 50%
c -  8.78 28 231 0 14 3541 28 33859 9626 3.2 19 6 2 7 30% 16201 86738 17682 50%
c -  9.20 28 223 0 15 3803 27 37600 11230 3.1 19 6 2 7 29% 16283 86737 17682 50%
c o  9.39 28 225 0 15 3920 27 40016 13348 3.1 18 6 2 7 28% 16343 86736 17682 50%
c d  9.67 28 221 0 15 4086 27 41247 14402 3.1 18 6 2 7 29% 16319 86736 17664 49%
c u  9.73 28 221 0 15 4086 27 41247 12532 3.1 18 6 2 7 29% 16330 86736 17664 49%
c v  9.78 28 221 0 15 4086 27 41247 11563 3.1 18 6 2 7 29% 16330 86736 17664 49%
c w  9.82 28 221 0 15 4086 27 41247 11563 3.1 18 6 2 7 29% 16330 86736 17664 49%
c x  9.89 28 221 0 15 4086 27 41247 11561 3.1 18 6 2 7 29% 16330 82099 17664 49%
c = 10.15 28 221 0 15 4086 27 41247 11561 3.1 18 6 2 7 29% 16874 82085 17392 49%
c d 10.15 28 221 0 15 4086 27 41247 11506 3.1 18 6 2 7 29% 16315 82085 17392 49%
c
c  seconds   switched     rate         size/glue tier1    binary          remaining
c         MB   reductions   conflicts        size  tier2      irredundant
c           level   restarts      redundant    glue   trail          variables
c
c t 10.17 28 221 0 15 4086 27 41247 11506 3.1 18 6 2 7 29% 16185 82085 17392 49%
c f 10.19 28 221 0 15 4086 27 41247 11506 3.1 18 6 2 7 29% 16223 81916 17424 49%
c u 10.24 28 221 0 15 4086 27 41247 11015 3.1 18 6 2 7 29% 16225 81916 17424 49%
c v 10.28 28 221 0 15 4086 27 41247 10170 3.1 18 6 2 7 29% 16228 81916 17424 49%
c w 10.32 28 221 0 15 4086 27 41247 10165 3.1 18 6 2 7 29% 16228 81916 17424 49%
c x 10.39 28 221 0 15 4086 27 41247 10163 3.1 18 6 2 7 29% 16228 81304 17424 49%
c = 10.59 28 221 0 15 4086 27 41247 10163 3.1 18 6 2 7 29% 16442 81304 17317 48%
c d 10.59 28 221 0 15 4086 27 41247 10124 3.1 18 6 2 7 29% 16220 81304 17317 48%
c t 10.61 28 221 0 15 4086 27 41247 10124 3.1 18 6 2 7 29% 16178 81304 17317 48%
c f 10.62 28 221 0 15 4086 27 41247 10124 3.1 18 6 2 7 29% 16193 81245 17328 49%
c - 10.66 28 221 0 16 4113 26 41472 9018 3.1 18 6 2 7 29% 16196 81245 17328 49%
c - 11.09 28 211 0 17 4352 25 45473 11125 3.0 18 6 2 7 29% 16272 81244 17328 49%
c - 11.51 28 205 0 18 4624 25 49597 13152 2.9 17 6 2 6 28% 16347 81241 17328 49%
c s 11.71 28 209 0 18 4756 24 52129 15376 2.9 17 6 2 6 28% 16400 77619 17328 49%
c e 11.83 28 209 0 18 4756 24 52129 15376 2.9 17 6 2 6 28% 14822 80443 16300 46%
c 2 11.83 28 209 0 18 4756 24 52129 15376 2.9 17 6 2 6 28% 14817 80443 16300 46%
c s 11.84 28 209 0 18 4756 24 52129 15376 2.9 17 6 2 6 28% 14868 79850 16300 46%
c e 11.85 28 209 0 18 4756 24 52129 15376 2.9 17 6 2 6 28% 14810 79914 16271 46%
c ^ 11.85 28 209 0 18 4756 24 52129 15376 2.9 17 6 2 6 28% 14810 79914 16271 46%
c - 12.00 29 208 0 19 4828 24 53839 13217 2.8 17 6 2 6 28% 14847 79914 16271 46%
c
c  seconds   switched     rate         size/glue tier1    binary          remaining
c         MB   reductions   conflicts        size  tier2      irredundant
c           level   restarts      redundant    glue   trail          variables
c
c - 12.56 29 199 0 20 5204 23 58197 14984 2.7 16 6 2 6 28% 14910 79914 16271 46%
c c 12.67 29 198 0 20 5247 23 58873 15576 2.7 16 6 2 6 28% 14955 79772 16243 45%
c d 12.67 29 198 0 20 5247 23 58873 15485 2.7 16 6 2 6 28% 14899 79772 16243 45%
c u 12.75 29 198 0 20 5247 23 58873 13421 2.7 16 6 2 6 28% 14907 79772 16243 45%
c v 12.79 29 198 0 20 5247 23 58873 12315 2.7 16 6 2 6 28% 14910 79772 16243 45%
c w 12.81 29 198 0 20 5247 23 58873 12295 2.7 16 6 2 6 28% 14910 79772 16243 45%
c x 12.86 29 198 0 20 5247 23 58873 12283 2.7 16 6 2 6 28% 14982 78613 16243 45%
c = 13.07 29 198 0 20 5247 23 58873 12283 2.7 16 6 2 6 28% 15984 78613 15742 44%
c d 13.08 29 198 0 20 5247 23 58873 11950 2.7 16 6 2 6 28% 14921 78613 15742 44%
c t 13.09 29 198 0 20 5247 23 58873 11950 2.7 16 6 2 6 28% 14723 78613 15742 44%
c f 13.14 29 198 0 20 5247 23 58873 11950 2.7 16 6 2 6 28% 14827 78217 15794 44%
c u 13.20 29 198 0 20 5247 23 58873 11047 2.7 16 6 2 6 28% 14833 78217 15794 44%
c v 13.24 29 198 0 20 5247 23 58873 10305 2.7 16 6 2 6 28% 14835 78217 15794 44%
c w 13.25 29 198 0 20 5247 23 58873 10292 2.7 16 6 2 6 28% 14835 78217 15794 44%
c x 13.32 29 198 0 20 5247 23 58873 10289 2.7 16 6 2 6 28% 14933 76017 15794 44%
c = 13.46 29 198 0 20 5247 23 58873 10289 2.7 16 6 2 6 28% 15269 76017 15626 44%
c d 13.47 29 198 0 20 5247 23 58873 10226 2.7 16 6 2 6 28% 14928 76017 15626 44%
c t 13.48 29 198 0 20 5247 23 58873 10226 2.7 16 6 2 6 28% 14864 76017 15626 44%
c f 13.50 29 198 0 20 5247 23 58873 10226 2.7 16 6 2 6 28% 14888 75922 15638 44%
c - 14.09 29 192 0 21 5618 23 62671 12225 2.7 16 6 2 6 28% 14936 75922 15638 44%
c
c  seconds   switched     rate         size/glue tier1    binary          remaining
c         MB   reductions   conflicts        size  tier2      irredundant
c           level   restarts      redundant    glue   trail          variables
c
c - 14.61 29 185 0 22 5984 22 67253 14613 2.7 16 6 2 6 28% 14988 75921 15638 44%
c o 14.95 29 182 0 22 6223 22 70075 17185 2.6 16 6 2 6 28% 15016 75921 15638 44%
c - 15.21 29 180 0 23 6442 22 71943 16620 2.6 16 6 2 6 28% 15028 75921 15638 44%
c - 15.98 29 175 0 24 7032 22 76738 18299 2.6 16 6 2 6 29% 15092 75921 15638 44%
c c 16.39 29 173 0 24 7325 22 79930 21156 2.6 16 6 2 6 28% 15176 75772 15597 44%
c d 16.40 29 173 0 24 7325 22 79930 21002 2.6 16 6 2 6 28% 15094 75772 15597 44%
c u 16.47 29 173 0 24 7325 22 79930 17972 2.6 16 6 2 6 28% 15094 75772 15597 44%
c v 16.54 29 173 0 24 7325 22 79930 16765 2.6 16 6 2 6 28% 15096 75772 15597 44%
c w 16.58 29 173 0 24 7325 22 79930 16765 2.6 16 6 2 6 28% 15096 75772 15597 44%
c x 16.65 29 173 0 24 7325 22 79930 16762 2.6 16 6 2 6 28% 15121 75219 15597 44%
c = 17.02 29 173 0 24 7325 22 79930 16762 2.6 16 6 2 6 28% 15879 75180 15216 43%
c d 17.02 29 173 0 24 7325 22 79930 16399 2.6 16 6 2 6 28% 15083 75180 15216 43%
c t 17.04 29 173 0 24 7325 22 79930 16399 2.6 16 6 2 6 28% 14986 75180 15216 43%
c f 17.06 29 173 0 24 7325 22 79930 16399 2.6 16 6 2 6 28% 15032 74979 15242 43%
c u 17.16 29 173 0 24 7325 22 79930 15531 2.6 16 6 2 6 28% 15034 74979 15242 43%
c v 17.22 29 173 0 24 7325 22 79930 14262 2.6 16 6 2 6 28% 15035 74979 15242 43%
c w 17.26 29 173 0 24 7325 22 79930 14230 2.6 16 6 2 6 28% 15035 74979 15242 43%
c x 17.33 29 173 0 24 7325 22 79930 14228 2.6 16 6 2 6 28% 15043 72471 15242 43%
c = 17.66 29 173 0 24 7325 22 79930 14228 2.6 16 6 2 6 28% 15149 72463 15189 43%
c d 17.67 29 173 0 24 7325 22 79930 14212 2.6 16 6 2 6 28% 15037 72463 15189 43%
c
c  seconds   switched     rate         size/glue tier1    binary          remaining
c         MB   reductions   conflicts        size  tier2      irredundant
c           level   restarts      redundant    glue   trail          variables
c
c t 17.69 29 173 0 24 7325 22 79930 14212 2.6 16 6 2 6 28% 15016 72463 15189 43%
c f 17.70 29 173 0 24 7325 22 79930 14212 2.6 16 6 2 6 28% 15017 72457 15190 43%
c - 17.92 29 171 0 25 7461 22 81638 13820 2.6 16 6 2 6 29% 15039 72456 15190 43%
c - 18.72 29 167 0 26 8009 22 86638 16325 2.5 16 6 2 6 29% 15088 72453 15190 43%
c - 19.47 29 165 0 27 8567 22 91737 18735 2.5 16 6 2 6 30% 15127 72452 15190 43%
c s 20.01 29 162 0 27 8957 22 95785 22323 2.5 16 6 2 6 29% 15172 70753 15190 43%
c e 20.11 29 162 0 27 8957 22 95785 22323 2.5 16 6 2 6 29% 11377 81269 13043 37%
c 2 20.12 29 162 0 27 8957 22 95785 22323 2.5 16 6 2 6 29% 11372 81269 13043 37%
c s 20.14 29 162 0 27 8957 22 95785 22323 2.5 16 6 2 6 29% 11419 80435 13043 37%
c e 20.16 29 162 0 27 8957 22 95785 22323 2.5 16 6 2 6 29% 11321 80631 13001 36%
c ^ 20.16 29 162 0 27 8957 22 95785 22323 2.5 16 6 2 6 29% 11321 80631 13001 36%
c - 20.30 29 161 0 28 9034 21 96933 15359 2.5 16 6 2 6 29% 11325 80631 13001 36%
c - 20.97 29 157 0 29 9522 21 102224 17833 2.5 16 6 2 6 30% 11358 80629 13001 36%
c d 21.21 29 156 0 29 9679 21 104545 19881 2.5 15 6 2 6 29% 11365 80627 12997 36%
c u 21.28 29 156 0 29 9679 21 104545 17080 2.5 15 6 2 6 29% 11385 80627 12997 36%
c v 21.35 29 156 0 29 9679 21 104545 14924 2.5 15 6 2 6 29% 11385 80627 12997 36%
c w 21.42 29 156 0 29 9679 21 104545 14861 2.5 15 6 2 6 29% 11385 80627 12997 36%
c x 21.49 29 156 0 29 9679 21 104545 14850 2.5 15 6 2 6 29% 11401 79697 12997 36%
c = 21.88 29 156 0 29 9679 21 104545 14850 2.5 15 6 2 6 29% 11741 79688 12827 36%
c d 21.89 29 156 0 29 9679 21 104545 14544 2.5 15 6 2 6 29% 11375 79688 12827 36%
c
c  seconds   switched     rate          size/glue tier1    binary          remaining
c         MB   reductions   conflicts         size  tier2      irredundant
c           level   restarts       redundant    glue   trail          variables
c
c t 21.90 29 156 0 29 9679 21 104545 14544 2.5 15 6 2 6 29% 11294 79688 12827 36%
c f 22.00 29 156 0 29 9679 21 104545 14544 2.5 15 6 2 6 29% 11315 79568 12837 36%
c u 22.09 29 156 0 29 9679 21 104545 13859 2.5 15 6 2 6 29% 11321 79568 12837 36%
c v 22.13 29 156 0 29 9679 21 104545 13420 2.5 15 6 2 6 29% 11321 79568 12837 36%
c w 22.18 29 156 0 29 9679 21 104545 13318 2.5 15 6 2 6 29% 11321 79568 12837 36%
c x 22.32 29 156 0 29 9679 21 104545 13296 2.5 15 6 2 6 29% 11413 77365 12837 36%
c = 22.71 29 156 0 29 9679 21 104545 13296 2.5 15 6 2 6 29% 11445 77365 12821 36%
c d 22.72 29 156 0 29 9679 21 104545 13274 2.5 15 6 2 6 29% 11409 77365 12821 36%
c t 22.73 29 156 0 29 9679 21 104545 13274 2.5 15 6 2 6 29% 11381 77365 12821 36%
c - 23.18 29 154 0 30 9994 21 107609 14409 2.4 15 6 2 6 30% 11393 77363 12821 36%
c o 23.53 29 153 0 30 10255 21 110075 16683 2.4 15 6 2 6 30% 11397 77363 12821 36%
c - 23.86 29 152 0 31 10459 21 113086 17287 2.4 15 6 2 6 30% 11406 77362 12821 36%
c - 24.51 29 148 0 32 10903 20 118653 19632 2.4 15 6 2 6 30% 11435 77361 12821 36%
c - 25.29 29 146 0 33 11474 20 124310 21512 2.4 15 6 2 6 30% 11457 77356 12821 36%
c - 26.09 29 143 0 34 12004 20 130054 23317 2.4 15 6 2 6 30% 11492 77355 12821 36%
c u 26.62 29 143 0 34 12325 20 132784 22511 2.4 16 7 2 6 30% 11521 77355 12821 36%
c v 26.70 29 143 0 34 12325 20 132784 21237 2.4 16 7 2 6 30% 11521 77355 12821 36%
c w 26.74 29 143 0 34 12325 20 132784 21237 2.4 16 7 2 6 30% 11521 77355 12821 36%
c x 26.82 29 143 0 34 12325 20 132784 21227 2.4 16 7 2 6 30% 11530 77068 12821 36%
c = 27.26 29 143 0 34 12325 20 132784 21227 2.4 16 7 2 6 30% 11556 77017 12803 36%
c
c  seconds   switched      rate          size/glue tier1    binary          remaining
c         MB   reductions    conflicts         size  tier2      irredundant
c           level   restarts        redundant    glue   trail          variables
c
c d 27.27 29 143 0 34 12325 20 132784 21194 2.4 16 7 2 6 30% 11529 77017 12803 36%
c t 27.28 29 143 0 34 12325 20 132784 21194 2.4 16 7 2 6 30% 11506 77017 12803 36%
c u 27.37 29 143 0 34 12325 20 132784 20302 2.4 16 7 2 6 30% 11517 77017 12803 36%
c v 27.44 29 143 0 34 12325 20 132784 18572 2.4 16 7 2 6 30% 11520 77017 12803 36%
c w 27.50 29 143 0 34 12325 20 132784 18554 2.4 16 7 2 6 30% 11520 77017 12803 36%
c x 27.58 29 143 0 34 12325 20 132784 18552 2.4 16 7 2 6 30% 11521 76802 12803 36%
c t 28.04 29 143 0 34 12325 20 132784 18552 2.4 16 7 2 6 30% 11517 76802 12803 36%
c - 28.44 29 141 0 35 12573 20 135886 18783 2.4 16 7 2 6 30% 11533 76802 12803 36%
c - 29.39 29 140 0 36 13163 20 141803 21438 2.4 16 7 2 6 31% 11567 76801 12803 36%
c - 30.18 29 138 0 37 13709 20 147804 23740 2.4 16 7 2 6 31% 11597 76801 12803 36%
c - 30.74 29 134 0 38 14154 19 153887 25604 2.3 16 7 2 6 30% 11639 76800 12803 36%
c i 30.85 29 133 0 38 14251 19 155532 27059 2.3 16 7 2 6 30% 11655 76800 12802 36%
c s 31.07 29 132 0 38 14453 19 157825 29133 2.3 16 7 2 6 30% 11673 76591 12802 36%
c e 31.19 29 132 0 38 14453 19 157825 29133 2.3 16 7 2 6 30% 8340 91055 10923 31%
c s 31.21 29 132 0 38 14453 19 157825 29133 2.3 16 7 2 6 30% 8370 89422 10923 31%
c e 31.24 29 132 0 38 14453 19 157825 29133 2.3 16 7 2 6 30% 8289 89713 10883 30%
c ^ 31.24 29 132 0 38 14453 19 157825 29133 2.3 16 7 2 6 30% 8289 89713 10883 30%
c - 31.50 29 131 0 39 14644 19 160052 19521 2.3 16 7 2 6 30% 8297 89713 10883 30%
c o 31.51 29 131 0 39 14649 19 160076 19543 2.3 16 7 2 6 30% 8297 89713 10883 30%
c c 31.98 29 129 0 39 15161 19 164751 23762 2.3 16 7 2 6 30% 8337 89644 10872 30%
c
c  seconds   switched      rate          size/glue tier1    binary         remaining
c         MB   reductions    conflicts         size  tier2     irredundant
c           level   restarts        redundant    glue   trail         variables
c
c d 31.98 29 129 0 39 15161 19 164751 23599 2.3 16 7 2 6 30% 8315 89644 10872 30%
c u 32.05 29 129 0 39 15161 19 164751 20484 2.3 16 7 2 6 30% 8341 89644 10872 30%
c v 32.12 29 129 0 39 15161 19 164751 18178 2.3 16 7 2 6 30% 8341 89644 10872 30%
c w 32.22 29 129 0 39 15161 19 164751 17906 2.3 16 7 2 6 30% 8341 89644 10872 30%
c d 32.23 29 129 0 39 15161 19 164751 17903 2.3 16 7 2 6 30% 8337 89644 10870 30%
c t 32.24 29 129 0 39 15161 19 164751 17903 2.3 16 7 2 6 30% 8283 89644 10870 30%
c f 32.34 29 129 0 39 15161 19 164751 17903 2.3 16 7 2 6 30% 8293 89307 10886 30%
c u 32.40 29 129 0 39 15161 19 164751 17306 2.3 16 7 2 6 30% 8300 89307 10886 30%
c v 32.45 29 129 0 39 15161 19 164751 16805 2.3 16 7 2 6 30% 8300 89307 10886 30%
c w 32.53 29 129 0 39 15161 19 164751 16713 2.3 16 7 2 6 30% 8300 89307 10886 30%
c x 32.61 29 129 0 39 15161 19 164751 16703 2.3 16 7 2 6 30% 8303 88997 10886 30%
c = 32.77 29 129 0 39 15161 19 164751 16703 2.3 16 7 2 6 30% 8462 88420 10746 30%
c } 32.77 29 129 0 39 15161 19 164751 16703 2.3 16 7 2 6 30% 8462 88420 10822 30%
c 0 32.77 29 129 0 39 15161 19 164751 16703 2.3 16 7 2 6 30% 8462 88420 10822 30%
c
c ---- [ result ] ------------------------------------------------------------
c
s UNSATISFIABLE
c
c ---- [ profiling ] ---------------------------------------------------------
c
c          21.88   66.75 %  search
c          21.88   66.75 %  focused
c          10.45   31.88 %  simplify
c           9.91   30.24 %  probe
c           4.38   13.37 %  sweep
c           3.59   10.95 %  vivify
c           0.81    2.48 %  factor
c           0.80    2.43 %  eliminate
c           0.48    1.47 %  substitute
c           0.44    1.33 %  congruence
c           0.38    1.16 %  preprocess
c           0.20    0.62 %  reduce
c           0.15    0.47 %  subsume
c           0.15    0.45 %  transitive
c           0.11    0.34 %  fastel
c           0.06    0.19 %  backbone
c           0.04    0.11 %  lucky
c           0.03    0.09 %  parse
c =============================================
c          32.77  100.00 %  total
c
c ---- [ statistics ] --------------------------------------------------------
c
c chronological:                         3977                2 %  conflicts
c conflicts:                           164751             5026.74 per second
c congruent:                             3611               10 %  variables
c decisions:                          3192490               19.38 per conflict
c eliminated:                           17876               50 %  variables
c factored:                              3107                9 %  variables
c fast_eliminated:                       8969               50 %  eliminated
c fast_strengthened:                      366                7 %  per strengthened
c fast_subsumed:                          100                1 %  per subsumed
c iterations:                               1                0 %  variables
c propagations:                     168428647          5138950    per second
c reductions:                              39             4224    interval
c reordered:                                6            27458    interval
c restarts:                             15161               11    interval
c strengthened:                          5615                0 %  checks
c substituted:                          10045               28 %  variables
c subsumed:                             15228                0 %  checks
c switched:                                 0                0    interval
c vivified:                             92575               14 %  checks
c
c ---- [ glue usage ] --------------------------------------------------------
c
c focused glue 2 used 84894 clauses 27.25% accumulated 67.58% tier1
c focused glue 3 used 38892 clauses 12.49% accumulated 80.06%
c focused glue 4 used 18012 clauses  5.78% accumulated 85.84%
c focused glue 5 used 10954 clauses  3.52% accumulated 89.36%
c focused glue 6 used  7314 clauses  2.35% accumulated 91.71% tier2
c
c ---- [ resources ] ---------------------------------------------------------
c
c maximum-resident-set-size:         30728192 bytes         29 MB
c process-time:                            33s              32.77 seconds
c
c ---- [ shutting down ] -----------------------------------------------------
c
c exit 20
